10111
6109
2496
2051
8507
4153
9301
5170
6027
3713
1812
3225
1332
1539
5134
2207
2707
1609
4096
9541
6370
4744
1859
4189
8600
2289
5496
3854
3090
6244
4240
3497
9696
4828
3110
7843
3890
10103
9795
941
1225
9604
6946
1753
1829
5798
4055
3158
6406
6181
6266
